Ba Ti O                                 
   1.00000000000000     
     3.9843434111137190    0.0000000000000000    0.0000000000000000
     0.0000000000000000    3.9843434111137190    0.0000000000000000
     0.0000000000000000    0.0000000000000000    3.9843434111137190
   Ba   Ti   O 
     1     1     3
Direct
  0.0000000000000000  0.0000000000000000  0.0000000000000000
  0.5000000000000000  0.5000000000000000  0.5000000000000000
  0.5000000000000000  0.5000000000000000  0.0000000000000000
  0.0000000000000000  0.5000000000000000  0.5000000000000000
  0.5000000000000000  0.0000000000000000  0.5000000000000000
